100
12 4
44 0
10 1
28 3
22 1
9 4
29 3
39 4
8 0
19 0
27 3
11 3
30 0
36 3
21 4
31 0
13 4
28 4
37 4
1 3
24 0
28 0
6 3
6 4
43 2
10 3
31 2
33 3
32 0
6 0
3 0
14 0
19 4
23 2
25 2
11 4
25 4
13 3
41 1
24 4
41 2
27 1
40 1
33 4
9 0
9 1
22 4
34 4
23 4
18 0
16 1
36 0
2 3
27 4
26 4
32 3
18 4
40 0
8 2
35 4
25 3
38 4
44 4
31 3
24 1
7 0
7 4
5 0
37 0
23 0
0 0
8 4
27 0
10 0
29 0
41 0
20 4
4 0
6 1
32 4
7 1
25 1
42 0
30 1
18 2
0 1
37 1
29 4
3 2
4 4
15 4
11 0
0 4
20 0
41 3
37 3
41 4
15 0
3 3
33 0

